710946
114,148,81,157,76,221,40,127,140,23,215,99,52,91,17,55,53,174,104,201,98,189,65,218,105,120,179,185,170,149,89,169,141,108,87,227,3,20,216,152,128,32,223,145,11,186,102,37,202,5,222,175,16,46,224,12,47,110,133,18,226,124,45,213,163,153,64,199,197,9,200,109,13,164,193,119,96,29,219,63,43,155,210,67,8,165,100,160,115,183,95,90,25,21,88,106,195,178,191,36,33,204,74,214,129,54,77,27,150,49,107,93,34,86,61,101,80,39,168,26,111,154,132,228,161,31,62,71,0,35,6,209,182,19,116,143,144,4,136,59,14,7,137,2,207,184,188,15,162,126,146,48,117,70,139,134,82,156,73,66,38,206,42,30,177,198,158,22,68,225,176,50,97,41,159,112,208,72,121,151,190,113,125,69,217,205,135,85,118,192,28,173,196,142,10,57,138,75,56,94,78,83,194,166,24,122,84,187,180,123,172,130,147,60,181,79,131,51,220,58,212,92,44,211,103,229,167,171,203,1
